! Course-original SYNTHETIC data, not measured transistor data.
! Valid teaching range 1 to 4 GHz. S21 magnitude is 10 (20 dB).
! No noise, bias, large-signal, thermal or DC-efficiency information.
! Two-port order: S11 S21 S12 S22, real imaginary pairs.
# GHz S RI R 50
1 0.2478086775 -0.03302815992 5.877852523 -8.090169944 0.0043815334 -0.002408768371 0.1861746858 0.0730683677
1.05 0.2475539991 -0.03488577866 5.49022818 -8.358073614 0.004319617086 -0.002518116008 0.1866097423 0.07195001106
1.1 0.2472853957 -0.03674143509 5.090414158 -8.60742027 0.004254972409 -0.00262587315 0.1870380808 0.07082906423
1.15 0.2470028827 -0.03859502482 4.679298143 -8.837656301 0.0041876402 -0.002731971734 0.1874596859 0.06970556755
1.2 0.2467064758 -0.0404464436 4.257792916 -9.048270525 0.004117662988 -0.002836344746 0.1878745426 0.06857956149
1.25 0.2463961917 -0.04229558727 3.826834324 -9.238795325 0.004045084972 -0.002938926261 0.1882826357 0.06745108657
1.3 0.2460720479 -0.04414235182 3.387379202 -9.40880769 0.003969951993 -0.003039651488 0.1886839508 0.06632018342
1.35 0.2457340627 -0.04598663338 2.940403252 -9.557930148 0.003892311508 -0.003138456806 0.1890784732 0.06518689275
1.4 0.2453822549 -0.04782832821 2.486898872 -9.685831611 0.003812212555 -0.003235279808 0.1894661888 0.06405125535
1.45 0.2450166445 -0.0496673327 2.027872954 -9.792228106 0.003729705727 -0.003330059337 0.1898470836 0.06291331212
1.5 0.2446372519 -0.05150354342 1.56434465 -9.876883406 0.003644843137 -0.00342273553 0.190221144 0.06177310402
1.55 0.2442440986 -0.05333685708 1.097343111 -9.939609555 0.003557678386 -0.003513249849 0.1905883564 0.06063067209
1.6 0.2438372065 -0.05516717055 0.6279051953 -9.980267284 0.003468266529 -0.003601545124 0.1909487077 0.05948605747
1.65 0.2434165988 -0.05699438088 0.1570731731 -9.998766325 0.003376664041 -0.003687565587 0.1913021848 0.05833930135
1.7 0.2429822988 -0.0588183853 -0.3141075908 -9.995065604 0.003282928779 -0.003771256904 0.1916487751 0.05719044502
1.75 0.2425343312 -0.0606390812 -0.7845909573 -9.969173337 0.003187119949 -0.003852566214 0.191988466 0.05603952984
1.8 0.2420727212 -0.06245636616 -1.253332336 -9.921147013 0.003089298065 -0.003931442161 0.1923212454 0.05488659725
1.85 0.2415974945 -0.06427013797 -1.719291003 -9.851093262 0.002989524915 -0.004007834924 0.1926471013 0.05373168875
1.9 0.2411086781 -0.06608029461 -2.181432414 -9.759167619 0.002887863517 -0.004081696254 0.1929660218 0.05257484591
1.95 0.2406062994 -0.06788673424 -2.6387305 -9.645574185 0.002784378082 -0.004152979496 0.1932779956 0.05141611038
2 0.2400903867 -0.06968935526 -3.090169944 -9.510565163 0.002679133975 -0.004221639628 0.1935830114 0.05025552388
2.05 0.2395609689 -0.07148805628 -3.534748438 -9.354440308 0.002572197669 -0.004287633281 0.1938810583 0.04909312818
2.1 0.2390180759 -0.07328273611 -3.971478906 -9.177546257 0.002463636708 -0.004350918773 0.1941721254 0.04792896514
2.15 0.2384617381 -0.0750732938 -4.399391699 -8.980275758 0.002353519661 -0.004411456132 0.1944562024 0.04676307665
2.2 0.237891987 -0.07685962865 -4.817536741 -8.7630668 0.00224191608 -0.004469207121 0.194733279 0.04559550471
2.25 0.2373088545 -0.07864164015 -5.224985647 -8.526401644 0.002128896458 -0.004524135262 0.1950033452 0.04442629133
2.3 0.2367123735 -0.08041922809 -5.620833779 -8.270805743 0.002014532179 -0.004576205863 0.1952663913 0.0432554786
2.35 0.2361025774 -0.08219229247 -6.004202253 -7.996846585 0.001898895478 -0.004625386034 0.1955224078 0.04208310869
2.4 0.2354795006 -0.08396073355 -6.374239897 -7.705132428 0.001782059394 -0.004671644712 0.1957713856 0.04090922379
2.45 0.2348431782 -0.08572445186 -6.730125135 -7.39631095 0.001664097723 -0.004714952679 0.1960133156 0.03973386616
2.5 0.2341936459 -0.0874833482 -7.071067812 -7.071067812 0.001545084972 -0.004755282581 0.1962481891 0.03855707811
2.55 0.2335309403 -0.08923732362 -7.39631095 -6.730125135 0.001425096312 -0.004792608945 0.1964759977 0.03737890202
2.6 0.2328550986 -0.09098627946 -7.705132428 -6.374239897 0.001304207531 -0.004826908194 0.1966967332 0.03619938029
2.65 0.2321661589 -0.09273011735 -7.996846585 -6.004202253 0.001182494985 -0.004858158665 0.1969103877 0.03501855538
2.7 0.2314641599 -0.0944687392 -8.270805743 -5.620833779 0.00106003555 -0.004886340618 0.1971169534 0.03383646981
2.75 0.2307491411 -0.0962020472 -8.526401644 -5.224985647 0.0009369065729 -0.004911436254 0.1973164229 0.03265316613
2.8 0.2300211427 -0.09792994387 -8.7630668 -4.817536741 0.000813185826 -0.004933429721 0.197508789 0.03146868695
2.85 0.2292802057 -0.099652332 -8.980275758 -4.399391699 0.0006889514534 -0.004952307128 0.1976940449 0.03028307489
2.9 0.2285263717 -0.1013691147 -9.177546257 -3.971478906 0.0005642819244 -0.004968056553 0.1978721837 0.02909637264
2.95 0.2277596832 -0.1030801954 -9.354440308 -3.534748438 0.0004392559828 -0.004980668046 0.1980431992 0.02790862293
3 0.2269801833 -0.1047854779 -9.510565163 -3.090169944 0.0003139525976 -0.004990133642 0.1982070852 0.02671986851
3.05 0.2261879158 -0.1064848663 -9.645574185 -2.6387305 0.0001884509133 -0.004996447363 0.1983638357 0.02553015218
3.1 0.2253829253 -0.1081782649 -9.759167619 -2.181432414 6.283019942e-05 -0.004999605221 0.1985134452 0.02433951676
3.15 0.224565257 -0.1098655785 -9.851093262 -1.719291003 -6.283019942e-05 -0.004999605221 0.1986559082 0.02314800513
3.2 0.2237349571 -0.1115467121 -9.921147013 -1.253332336 -0.0001884509133 -0.004996447363 0.1987912196 0.02195566017
3.25 0.222892072 -0.1132215713 -9.969173337 -0.7845909573 -0.0003139525976 -0.004990133642 0.1989193745 0.02076252481
3.3 0.2220366494 -0.1148900619 -9.995065604 -0.3141075908 -0.0004392559828 -0.004980668046 0.1990403684 0.019568642
3.35 0.2211687373 -0.1165520899 -9.998766325 0.1570731731 -0.0005642819244 -0.004968056553 0.1991541968 0.01837405472
3.4 0.2202883845 -0.1182075618 -9.980267284 0.6279051953 -0.0006889514534 -0.004952307128 0.1992608557 0.01717880597
3.45 0.2193956405 -0.1198563847 -9.939609555 1.097343111 -0.000813185826 -0.004933429721 0.1993603413 0.01598293879
3.5 0.2184905555 -0.1214984656 -9.876883406 1.56434465 -0.0009369065729 -0.004911436254 0.1994526498 0.01478649623
3.55 0.2175731806 -0.1231337123 -9.792228106 2.027872954 -0.00106003555 -0.004886340618 0.1995377782 0.01358952136
3.6 0.2166435672 -0.1247620327 -9.685831611 2.486898872 -0.001182494985 -0.004858158665 0.1996157231 0.01239205726
3.65 0.2157017676 -0.1263833353 -9.557930148 2.940403252 -0.001304207531 -0.004826908194 0.1996864819 0.01119414705
3.7 0.2147478349 -0.1279975289 -9.40880769 3.387379202 -0.001425096312 -0.004792608945 0.1997500521 0.009995833854
3.75 0.2137818227 -0.1296045226 -9.238795325 3.826834324 -0.001545084972 -0.004755282581 0.1998064312 0.008797160808
3.8 0.2128037853 -0.1312042262 -9.048270525 4.257792916 -0.001664097723 -0.004714952679 0.1998556174 0.007598171065
3.85 0.2118137778 -0.1327965495 -8.837656301 4.679298143 -0.001782059394 -0.004671644712 0.1998976087 0.006398907789
3.9 0.2108118557 -0.134381403 -8.60742027 5.090414158 -0.001898895478 -0.004625386034 0.1999324038 0.005199414153
3.95 0.2097980756 -0.1359586977 -8.358073614 5.49022818 -0.002014532179 -0.004576205863 0.1999600013 0.003999733339
4 0.2087724944 -0.1375283447 -8.090169944 5.877852523 -0.002128896458 -0.004524135262 0.1999804003 0.002799908534
